26 4
32 42 24 34 98 20 85 63 53 54 38 26 27 55 56 42 82 75 74 25 54 77 82 82 57 67
64 40 70 86 70 39 82 61 85 28 11 72 20 30 57 55 34 86 92 11 90 45 77 75 88 29
83 29 64 94 36 31 47 50 81 88 91 92 38 55 83 14 76 93 21 96 43 80 32 38 71 83
40 39 69 60 46 58 90 67 81 54 26 96 11 19 36 59 26 64 79 92 90 21 40 52 84 85
